
Gurobi 9.0.2 (linux64) logging started Fri Jun  5 19:13:05 2020

Changed value of parameter LogFile to gurobi_logs/2020-06-05_19:13:04-rproblem5_7_employees_mode=feasibility_sdp_reduce.log
   Prev:   Default: 
Parameter MIPFocus unchanged
   Value: 0  Min: 0  Max: 3  Default: 0
Parameter SolutionLimit unchanged
   Value: 2000000000  Min: 1  Max: 2000000000  Default: 2000000000
Parameter LogToConsole unchanged
   Value: 1  Min: 0  Max: 1  Default: 1
Changed value of parameter TimeLimit to 10000.0
   Prev: inf  Min: 0.0  Max: inf  Default: inf
Gurobi Optimizer version 9.0.2 build v9.0.2rc0 (linux64)
Optimize a model with 3966 rows, 4236 columns and 10494 nonzeros
Model fingerprint: 0xc7861b11
Variable types: 42 continuous, 4194 integer (270 binary)
Coefficient statistics:
  Matrix range     [1e+00, 1e+03]
  Objective range  [5e-01, 5e+00]
  Bounds range     [1e+00, 1e+00]
  RHS range        [1e+00, 5e+00]
Presolve removed 3966 rows and 4236 columns
Presolve time: 0.00s
Presolve: All rows and columns removed

Explored 0 nodes (0 simplex iterations) in 0.01 seconds
Thread count was 1 (of 48 available processors)

Solution count 1: 510 

Optimal solution found (tolerance 1.00e-04)
Best objective 5.100000000000e+02, best bound 5.100000000000e+02, gap 0.0000%

Gurobi 9.0.2 (linux64) logging started Fri Jun  5 19:13:06 2020

Changed value of parameter LogFile to gurobi_logs/2020-06-05_19:13:04-rproblem5_7_employees_mode=feasibility_sdp_reduce.log
   Prev:   Default: 
Parameter MIPFocus unchanged
   Value: 0  Min: 0  Max: 3  Default: 0
Parameter SolutionLimit unchanged
   Value: 2000000000  Min: 1  Max: 2000000000  Default: 2000000000
Parameter LogToConsole unchanged
   Value: 1  Min: 0  Max: 1  Default: 1
Changed value of parameter TimeLimit to 10000.0
   Prev: inf  Min: 0.0  Max: inf  Default: inf
Gurobi Optimizer version 9.0.2 build v9.0.2rc0 (linux64)
Optimize a model with 33572 rows, 26593 columns and 938455 nonzeros
Model fingerprint: 0x7b380068
Variable types: 7 continuous, 26586 integer (22932 binary)
Coefficient statistics:
  Matrix range     [5e-01, 1e+02]
  Objective range  [1e+00, 1e+00]
  Bounds range     [1e+00, 1e+00]
  RHS range        [1e+00, 2e+02]
Presolve removed 17623 rows and 9499 columns
Presolve time: 1.46s
Presolved: 15949 rows, 17094 columns, 334789 nonzeros
Variable types: 0 continuous, 17094 integer (17010 binary)

Deterministic concurrent LP optimizer: primal and dual simplex
Showing first log only...

Concurrent spin time: 0.00s

Solved with dual simplex

Root relaxation: infeasible, 752 iterations, 0.19 seconds

    Nodes    |    Current Node    |     Objective Bounds      |     Work
 Expl Unexpl |  Obj  Depth IntInf | Incumbent    BestBd   Gap | It/Node Time

     0     0 infeasible    0               - infeasible      -     -    1s

Explored 0 nodes (752 simplex iterations) in 1.85 seconds
Thread count was 24 (of 48 available processors)

Solution count 0

Model is infeasible
Best objective -, best bound -, gap -
